c *********************************
c * Circuit generated by BenCGen
c *
c * CarrySaveAdder_132_132_132_132_133
c *
c * Ports with 1 gate(s): 2
c * Ports with 2 gate(s): 661
c * Total gates: 663
c *********************************
p cnf 1059 2251
1 663 0
-1 -663 0
1 -662 0
663 -662 0
-1 -663 662 0
662 -529 0
-662 529 0
1 133 -664 0
-1 133 664 0
1 -133 664 0
-1 -133 -664 0
664 265 -397 0
-664 265 397 0
664 -265 397 0
-664 -265 -397 0
265 -665 0
664 -665 0
-265 -664 665 0
133 -666 0
1 -666 0
-133 -1 666 0
-665 530 0
-666 530 0
665 666 -530 0
2 134 -667 0
-2 134 667 0
2 -134 667 0
-2 -134 -667 0
667 266 -398 0
-667 266 398 0
667 -266 398 0
-667 -266 -398 0
266 -668 0
667 -668 0
-266 -667 668 0
134 -669 0
2 -669 0
-134 -2 669 0
-668 531 0
-669 531 0
668 669 -531 0
3 135 -670 0
-3 135 670 0
3 -135 670 0
-3 -135 -670 0
670 267 -399 0
-670 267 399 0
670 -267 399 0
-670 -267 -399 0
267 -671 0
670 -671 0
-267 -670 671 0
135 -672 0
3 -672 0
-135 -3 672 0
-671 532 0
-672 532 0
671 672 -532 0
4 136 -673 0
-4 136 673 0
4 -136 673 0
-4 -136 -673 0
673 268 -400 0
-673 268 400 0
673 -268 400 0
-673 -268 -400 0
268 -674 0
673 -674 0
-268 -673 674 0
136 -675 0
4 -675 0
-136 -4 675 0
-674 533 0
-675 533 0
674 675 -533 0
5 137 -676 0
-5 137 676 0
5 -137 676 0
-5 -137 -676 0
676 269 -401 0
-676 269 401 0
676 -269 401 0
-676 -269 -401 0
269 -677 0
676 -677 0
-269 -676 677 0
137 -678 0
5 -678 0
-137 -5 678 0
-677 534 0
-678 534 0
677 678 -534 0
6 138 -679 0
-6 138 679 0
6 -138 679 0
-6 -138 -679 0
679 270 -402 0
-679 270 402 0
679 -270 402 0
-679 -270 -402 0
270 -680 0
679 -680 0
-270 -679 680 0
138 -681 0
6 -681 0
-138 -6 681 0
-680 535 0
-681 535 0
680 681 -535 0
7 139 -682 0
-7 139 682 0
7 -139 682 0
-7 -139 -682 0
682 271 -403 0
-682 271 403 0
682 -271 403 0
-682 -271 -403 0
271 -683 0
682 -683 0
-271 -682 683 0
139 -684 0
7 -684 0
-139 -7 684 0
-683 536 0
-684 536 0
683 684 -536 0
8 140 -685 0
-8 140 685 0
8 -140 685 0
-8 -140 -685 0
685 272 -404 0
-685 272 404 0
685 -272 404 0
-685 -272 -404 0
272 -686 0
685 -686 0
-272 -685 686 0
140 -687 0
8 -687 0
-140 -8 687 0
-686 537 0
-687 537 0
686 687 -537 0
9 141 -688 0
-9 141 688 0
9 -141 688 0
-9 -141 -688 0
688 273 -405 0
-688 273 405 0
688 -273 405 0
-688 -273 -405 0
273 -689 0
688 -689 0
-273 -688 689 0
141 -690 0
9 -690 0
-141 -9 690 0
-689 538 0
-690 538 0
689 690 -538 0
10 142 -691 0
-10 142 691 0
10 -142 691 0
-10 -142 -691 0
691 274 -406 0
-691 274 406 0
691 -274 406 0
-691 -274 -406 0
274 -692 0
691 -692 0
-274 -691 692 0
142 -693 0
10 -693 0
-142 -10 693 0
-692 539 0
-693 539 0
692 693 -539 0
11 143 -694 0
-11 143 694 0
11 -143 694 0
-11 -143 -694 0
694 275 -407 0
-694 275 407 0
694 -275 407 0
-694 -275 -407 0
275 -695 0
694 -695 0
-275 -694 695 0
143 -696 0
11 -696 0
-143 -11 696 0
-695 540 0
-696 540 0
695 696 -540 0
12 144 -697 0
-12 144 697 0
12 -144 697 0
-12 -144 -697 0
697 276 -408 0
-697 276 408 0
697 -276 408 0
-697 -276 -408 0
276 -698 0
697 -698 0
-276 -697 698 0
144 -699 0
12 -699 0
-144 -12 699 0
-698 541 0
-699 541 0
698 699 -541 0
13 145 -700 0
-13 145 700 0
13 -145 700 0
-13 -145 -700 0
700 277 -409 0
-700 277 409 0
700 -277 409 0
-700 -277 -409 0
277 -701 0
700 -701 0
-277 -700 701 0
145 -702 0
13 -702 0
-145 -13 702 0
-701 542 0
-702 542 0
701 702 -542 0
14 146 -703 0
-14 146 703 0
14 -146 703 0
-14 -146 -703 0
703 278 -410 0
-703 278 410 0
703 -278 410 0
-703 -278 -410 0
278 -704 0
703 -704 0
-278 -703 704 0
146 -705 0
14 -705 0
-146 -14 705 0
-704 543 0
-705 543 0
704 705 -543 0
15 147 -706 0
-15 147 706 0
15 -147 706 0
-15 -147 -706 0
706 279 -411 0
-706 279 411 0
706 -279 411 0
-706 -279 -411 0
279 -707 0
706 -707 0
-279 -706 707 0
147 -708 0
15 -708 0
-147 -15 708 0
-707 544 0
-708 544 0
707 708 -544 0
16 148 -709 0
-16 148 709 0
16 -148 709 0
-16 -148 -709 0
709 280 -412 0
-709 280 412 0
709 -280 412 0
-709 -280 -412 0
280 -710 0
709 -710 0
-280 -709 710 0
148 -711 0
16 -711 0
-148 -16 711 0
-710 545 0
-711 545 0
710 711 -545 0
17 149 -712 0
-17 149 712 0
17 -149 712 0
-17 -149 -712 0
712 281 -413 0
-712 281 413 0
712 -281 413 0
-712 -281 -413 0
281 -713 0
712 -713 0
-281 -712 713 0
149 -714 0
17 -714 0
-149 -17 714 0
-713 546 0
-714 546 0
713 714 -546 0
18 150 -715 0
-18 150 715 0
18 -150 715 0
-18 -150 -715 0
715 282 -414 0
-715 282 414 0
715 -282 414 0
-715 -282 -414 0
282 -716 0
715 -716 0
-282 -715 716 0
150 -717 0
18 -717 0
-150 -18 717 0
-716 547 0
-717 547 0
716 717 -547 0
19 151 -718 0
-19 151 718 0
19 -151 718 0
-19 -151 -718 0
718 283 -415 0
-718 283 415 0
718 -283 415 0
-718 -283 -415 0
283 -719 0
718 -719 0
-283 -718 719 0
151 -720 0
19 -720 0
-151 -19 720 0
-719 548 0
-720 548 0
719 720 -548 0
20 152 -721 0
-20 152 721 0
20 -152 721 0
-20 -152 -721 0
721 284 -416 0
-721 284 416 0
721 -284 416 0
-721 -284 -416 0
284 -722 0
721 -722 0
-284 -721 722 0
152 -723 0
20 -723 0
-152 -20 723 0
-722 549 0
-723 549 0
722 723 -549 0
21 153 -724 0
-21 153 724 0
21 -153 724 0
-21 -153 -724 0
724 285 -417 0
-724 285 417 0
724 -285 417 0
-724 -285 -417 0
285 -725 0
724 -725 0
-285 -724 725 0
153 -726 0
21 -726 0
-153 -21 726 0
-725 550 0
-726 550 0
725 726 -550 0
22 154 -727 0
-22 154 727 0
22 -154 727 0
-22 -154 -727 0
727 286 -418 0
-727 286 418 0
727 -286 418 0
-727 -286 -418 0
286 -728 0
727 -728 0
-286 -727 728 0
154 -729 0
22 -729 0
-154 -22 729 0
-728 551 0
-729 551 0
728 729 -551 0
23 155 -730 0
-23 155 730 0
23 -155 730 0
-23 -155 -730 0
730 287 -419 0
-730 287 419 0
730 -287 419 0
-730 -287 -419 0
287 -731 0
730 -731 0
-287 -730 731 0
155 -732 0
23 -732 0
-155 -23 732 0
-731 552 0
-732 552 0
731 732 -552 0
24 156 -733 0
-24 156 733 0
24 -156 733 0
-24 -156 -733 0
733 288 -420 0
-733 288 420 0
733 -288 420 0
-733 -288 -420 0
288 -734 0
733 -734 0
-288 -733 734 0
156 -735 0
24 -735 0
-156 -24 735 0
-734 553 0
-735 553 0
734 735 -553 0
25 157 -736 0
-25 157 736 0
25 -157 736 0
-25 -157 -736 0
736 289 -421 0
-736 289 421 0
736 -289 421 0
-736 -289 -421 0
289 -737 0
736 -737 0
-289 -736 737 0
157 -738 0
25 -738 0
-157 -25 738 0
-737 554 0
-738 554 0
737 738 -554 0
26 158 -739 0
-26 158 739 0
26 -158 739 0
-26 -158 -739 0
739 290 -422 0
-739 290 422 0
739 -290 422 0
-739 -290 -422 0
290 -740 0
739 -740 0
-290 -739 740 0
158 -741 0
26 -741 0
-158 -26 741 0
-740 555 0
-741 555 0
740 741 -555 0
27 159 -742 0
-27 159 742 0
27 -159 742 0
-27 -159 -742 0
742 291 -423 0
-742 291 423 0
742 -291 423 0
-742 -291 -423 0
291 -743 0
742 -743 0
-291 -742 743 0
159 -744 0
27 -744 0
-159 -27 744 0
-743 556 0
-744 556 0
743 744 -556 0
28 160 -745 0
-28 160 745 0
28 -160 745 0
-28 -160 -745 0
745 292 -424 0
-745 292 424 0
745 -292 424 0
-745 -292 -424 0
292 -746 0
745 -746 0
-292 -745 746 0
160 -747 0
28 -747 0
-160 -28 747 0
-746 557 0
-747 557 0
746 747 -557 0
29 161 -748 0
-29 161 748 0
29 -161 748 0
-29 -161 -748 0
748 293 -425 0
-748 293 425 0
748 -293 425 0
-748 -293 -425 0
293 -749 0
748 -749 0
-293 -748 749 0
161 -750 0
29 -750 0
-161 -29 750 0
-749 558 0
-750 558 0
749 750 -558 0
30 162 -751 0
-30 162 751 0
30 -162 751 0
-30 -162 -751 0
751 294 -426 0
-751 294 426 0
751 -294 426 0
-751 -294 -426 0
294 -752 0
751 -752 0
-294 -751 752 0
162 -753 0
30 -753 0
-162 -30 753 0
-752 559 0
-753 559 0
752 753 -559 0
31 163 -754 0
-31 163 754 0
31 -163 754 0
-31 -163 -754 0
754 295 -427 0
-754 295 427 0
754 -295 427 0
-754 -295 -427 0
295 -755 0
754 -755 0
-295 -754 755 0
163 -756 0
31 -756 0
-163 -31 756 0
-755 560 0
-756 560 0
755 756 -560 0
32 164 -757 0
-32 164 757 0
32 -164 757 0
-32 -164 -757 0
757 296 -428 0
-757 296 428 0
757 -296 428 0
-757 -296 -428 0
296 -758 0
757 -758 0
-296 -757 758 0
164 -759 0
32 -759 0
-164 -32 759 0
-758 561 0
-759 561 0
758 759 -561 0
33 165 -760 0
-33 165 760 0
33 -165 760 0
-33 -165 -760 0
760 297 -429 0
-760 297 429 0
760 -297 429 0
-760 -297 -429 0
297 -761 0
760 -761 0
-297 -760 761 0
165 -762 0
33 -762 0
-165 -33 762 0
-761 562 0
-762 562 0
761 762 -562 0
34 166 -763 0
-34 166 763 0
34 -166 763 0
-34 -166 -763 0
763 298 -430 0
-763 298 430 0
763 -298 430 0
-763 -298 -430 0
298 -764 0
763 -764 0
-298 -763 764 0
166 -765 0
34 -765 0
-166 -34 765 0
-764 563 0
-765 563 0
764 765 -563 0
35 167 -766 0
-35 167 766 0
35 -167 766 0
-35 -167 -766 0
766 299 -431 0
-766 299 431 0
766 -299 431 0
-766 -299 -431 0
299 -767 0
766 -767 0
-299 -766 767 0
167 -768 0
35 -768 0
-167 -35 768 0
-767 564 0
-768 564 0
767 768 -564 0
36 168 -769 0
-36 168 769 0
36 -168 769 0
-36 -168 -769 0
769 300 -432 0
-769 300 432 0
769 -300 432 0
-769 -300 -432 0
300 -770 0
769 -770 0
-300 -769 770 0
168 -771 0
36 -771 0
-168 -36 771 0
-770 565 0
-771 565 0
770 771 -565 0
37 169 -772 0
-37 169 772 0
37 -169 772 0
-37 -169 -772 0
772 301 -433 0
-772 301 433 0
772 -301 433 0
-772 -301 -433 0
301 -773 0
772 -773 0
-301 -772 773 0
169 -774 0
37 -774 0
-169 -37 774 0
-773 566 0
-774 566 0
773 774 -566 0
38 170 -775 0
-38 170 775 0
38 -170 775 0
-38 -170 -775 0
775 302 -434 0
-775 302 434 0
775 -302 434 0
-775 -302 -434 0
302 -776 0
775 -776 0
-302 -775 776 0
170 -777 0
38 -777 0
-170 -38 777 0
-776 567 0
-777 567 0
776 777 -567 0
39 171 -778 0
-39 171 778 0
39 -171 778 0
-39 -171 -778 0
778 303 -435 0
-778 303 435 0
778 -303 435 0
-778 -303 -435 0
303 -779 0
778 -779 0
-303 -778 779 0
171 -780 0
39 -780 0
-171 -39 780 0
-779 568 0
-780 568 0
779 780 -568 0
40 172 -781 0
-40 172 781 0
40 -172 781 0
-40 -172 -781 0
781 304 -436 0
-781 304 436 0
781 -304 436 0
-781 -304 -436 0
304 -782 0
781 -782 0
-304 -781 782 0
172 -783 0
40 -783 0
-172 -40 783 0
-782 569 0
-783 569 0
782 783 -569 0
41 173 -784 0
-41 173 784 0
41 -173 784 0
-41 -173 -784 0
784 305 -437 0
-784 305 437 0
784 -305 437 0
-784 -305 -437 0
305 -785 0
784 -785 0
-305 -784 785 0
173 -786 0
41 -786 0
-173 -41 786 0
-785 570 0
-786 570 0
785 786 -570 0
42 174 -787 0
-42 174 787 0
42 -174 787 0
-42 -174 -787 0
787 306 -438 0
-787 306 438 0
787 -306 438 0
-787 -306 -438 0
306 -788 0
787 -788 0
-306 -787 788 0
174 -789 0
42 -789 0
-174 -42 789 0
-788 571 0
-789 571 0
788 789 -571 0
43 175 -790 0
-43 175 790 0
43 -175 790 0
-43 -175 -790 0
790 307 -439 0
-790 307 439 0
790 -307 439 0
-790 -307 -439 0
307 -791 0
790 -791 0
-307 -790 791 0
175 -792 0
43 -792 0
-175 -43 792 0
-791 572 0
-792 572 0
791 792 -572 0
44 176 -793 0
-44 176 793 0
44 -176 793 0
-44 -176 -793 0
793 308 -440 0
-793 308 440 0
793 -308 440 0
-793 -308 -440 0
308 -794 0
793 -794 0
-308 -793 794 0
176 -795 0
44 -795 0
-176 -44 795 0
-794 573 0
-795 573 0
794 795 -573 0
45 177 -796 0
-45 177 796 0
45 -177 796 0
-45 -177 -796 0
796 309 -441 0
-796 309 441 0
796 -309 441 0
-796 -309 -441 0
309 -797 0
796 -797 0
-309 -796 797 0
177 -798 0
45 -798 0
-177 -45 798 0
-797 574 0
-798 574 0
797 798 -574 0
46 178 -799 0
-46 178 799 0
46 -178 799 0
-46 -178 -799 0
799 310 -442 0
-799 310 442 0
799 -310 442 0
-799 -310 -442 0
310 -800 0
799 -800 0
-310 -799 800 0
178 -801 0
46 -801 0
-178 -46 801 0
-800 575 0
-801 575 0
800 801 -575 0
47 179 -802 0
-47 179 802 0
47 -179 802 0
-47 -179 -802 0
802 311 -443 0
-802 311 443 0
802 -311 443 0
-802 -311 -443 0
311 -803 0
802 -803 0
-311 -802 803 0
179 -804 0
47 -804 0
-179 -47 804 0
-803 576 0
-804 576 0
803 804 -576 0
48 180 -805 0
-48 180 805 0
48 -180 805 0
-48 -180 -805 0
805 312 -444 0
-805 312 444 0
805 -312 444 0
-805 -312 -444 0
312 -806 0
805 -806 0
-312 -805 806 0
180 -807 0
48 -807 0
-180 -48 807 0
-806 577 0
-807 577 0
806 807 -577 0
49 181 -808 0
-49 181 808 0
49 -181 808 0
-49 -181 -808 0
808 313 -445 0
-808 313 445 0
808 -313 445 0
-808 -313 -445 0
313 -809 0
808 -809 0
-313 -808 809 0
181 -810 0
49 -810 0
-181 -49 810 0
-809 578 0
-810 578 0
809 810 -578 0
50 182 -811 0
-50 182 811 0
50 -182 811 0
-50 -182 -811 0
811 314 -446 0
-811 314 446 0
811 -314 446 0
-811 -314 -446 0
314 -812 0
811 -812 0
-314 -811 812 0
182 -813 0
50 -813 0
-182 -50 813 0
-812 579 0
-813 579 0
812 813 -579 0
51 183 -814 0
-51 183 814 0
51 -183 814 0
-51 -183 -814 0
814 315 -447 0
-814 315 447 0
814 -315 447 0
-814 -315 -447 0
315 -815 0
814 -815 0
-315 -814 815 0
183 -816 0
51 -816 0
-183 -51 816 0
-815 580 0
-816 580 0
815 816 -580 0
52 184 -817 0
-52 184 817 0
52 -184 817 0
-52 -184 -817 0
817 316 -448 0
-817 316 448 0
817 -316 448 0
-817 -316 -448 0
316 -818 0
817 -818 0
-316 -817 818 0
184 -819 0
52 -819 0
-184 -52 819 0
-818 581 0
-819 581 0
818 819 -581 0
53 185 -820 0
-53 185 820 0
53 -185 820 0
-53 -185 -820 0
820 317 -449 0
-820 317 449 0
820 -317 449 0
-820 -317 -449 0
317 -821 0
820 -821 0
-317 -820 821 0
185 -822 0
53 -822 0
-185 -53 822 0
-821 582 0
-822 582 0
821 822 -582 0
54 186 -823 0
-54 186 823 0
54 -186 823 0
-54 -186 -823 0
823 318 -450 0
-823 318 450 0
823 -318 450 0
-823 -318 -450 0
318 -824 0
823 -824 0
-318 -823 824 0
186 -825 0
54 -825 0
-186 -54 825 0
-824 583 0
-825 583 0
824 825 -583 0
55 187 -826 0
-55 187 826 0
55 -187 826 0
-55 -187 -826 0
826 319 -451 0
-826 319 451 0
826 -319 451 0
-826 -319 -451 0
319 -827 0
826 -827 0
-319 -826 827 0
187 -828 0
55 -828 0
-187 -55 828 0
-827 584 0
-828 584 0
827 828 -584 0
56 188 -829 0
-56 188 829 0
56 -188 829 0
-56 -188 -829 0
829 320 -452 0
-829 320 452 0
829 -320 452 0
-829 -320 -452 0
320 -830 0
829 -830 0
-320 -829 830 0
188 -831 0
56 -831 0
-188 -56 831 0
-830 585 0
-831 585 0
830 831 -585 0
57 189 -832 0
-57 189 832 0
57 -189 832 0
-57 -189 -832 0
832 321 -453 0
-832 321 453 0
832 -321 453 0
-832 -321 -453 0
321 -833 0
832 -833 0
-321 -832 833 0
189 -834 0
57 -834 0
-189 -57 834 0
-833 586 0
-834 586 0
833 834 -586 0
58 190 -835 0
-58 190 835 0
58 -190 835 0
-58 -190 -835 0
835 322 -454 0
-835 322 454 0
835 -322 454 0
-835 -322 -454 0
322 -836 0
835 -836 0
-322 -835 836 0
190 -837 0
58 -837 0
-190 -58 837 0
-836 587 0
-837 587 0
836 837 -587 0
59 191 -838 0
-59 191 838 0
59 -191 838 0
-59 -191 -838 0
838 323 -455 0
-838 323 455 0
838 -323 455 0
-838 -323 -455 0
323 -839 0
838 -839 0
-323 -838 839 0
191 -840 0
59 -840 0
-191 -59 840 0
-839 588 0
-840 588 0
839 840 -588 0
60 192 -841 0
-60 192 841 0
60 -192 841 0
-60 -192 -841 0
841 324 -456 0
-841 324 456 0
841 -324 456 0
-841 -324 -456 0
324 -842 0
841 -842 0
-324 -841 842 0
192 -843 0
60 -843 0
-192 -60 843 0
-842 589 0
-843 589 0
842 843 -589 0
61 193 -844 0
-61 193 844 0
61 -193 844 0
-61 -193 -844 0
844 325 -457 0
-844 325 457 0
844 -325 457 0
-844 -325 -457 0
325 -845 0
844 -845 0
-325 -844 845 0
193 -846 0
61 -846 0
-193 -61 846 0
-845 590 0
-846 590 0
845 846 -590 0
62 194 -847 0
-62 194 847 0
62 -194 847 0
-62 -194 -847 0
847 326 -458 0
-847 326 458 0
847 -326 458 0
-847 -326 -458 0
326 -848 0
847 -848 0
-326 -847 848 0
194 -849 0
62 -849 0
-194 -62 849 0
-848 591 0
-849 591 0
848 849 -591 0
63 195 -850 0
-63 195 850 0
63 -195 850 0
-63 -195 -850 0
850 327 -459 0
-850 327 459 0
850 -327 459 0
-850 -327 -459 0
327 -851 0
850 -851 0
-327 -850 851 0
195 -852 0
63 -852 0
-195 -63 852 0
-851 592 0
-852 592 0
851 852 -592 0
64 196 -853 0
-64 196 853 0
64 -196 853 0
-64 -196 -853 0
853 328 -460 0
-853 328 460 0
853 -328 460 0
-853 -328 -460 0
328 -854 0
853 -854 0
-328 -853 854 0
196 -855 0
64 -855 0
-196 -64 855 0
-854 593 0
-855 593 0
854 855 -593 0
65 197 -856 0
-65 197 856 0
65 -197 856 0
-65 -197 -856 0
856 329 -461 0
-856 329 461 0
856 -329 461 0
-856 -329 -461 0
329 -857 0
856 -857 0
-329 -856 857 0
197 -858 0
65 -858 0
-197 -65 858 0
-857 594 0
-858 594 0
857 858 -594 0
66 198 -859 0
-66 198 859 0
66 -198 859 0
-66 -198 -859 0
859 330 -462 0
-859 330 462 0
859 -330 462 0
-859 -330 -462 0
330 -860 0
859 -860 0
-330 -859 860 0
198 -861 0
66 -861 0
-198 -66 861 0
-860 595 0
-861 595 0
860 861 -595 0
67 199 -862 0
-67 199 862 0
67 -199 862 0
-67 -199 -862 0
862 331 -463 0
-862 331 463 0
862 -331 463 0
-862 -331 -463 0
331 -863 0
862 -863 0
-331 -862 863 0
199 -864 0
67 -864 0
-199 -67 864 0
-863 596 0
-864 596 0
863 864 -596 0
68 200 -865 0
-68 200 865 0
68 -200 865 0
-68 -200 -865 0
865 332 -464 0
-865 332 464 0
865 -332 464 0
-865 -332 -464 0
332 -866 0
865 -866 0
-332 -865 866 0
200 -867 0
68 -867 0
-200 -68 867 0
-866 597 0
-867 597 0
866 867 -597 0
69 201 -868 0
-69 201 868 0
69 -201 868 0
-69 -201 -868 0
868 333 -465 0
-868 333 465 0
868 -333 465 0
-868 -333 -465 0
333 -869 0
868 -869 0
-333 -868 869 0
201 -870 0
69 -870 0
-201 -69 870 0
-869 598 0
-870 598 0
869 870 -598 0
70 202 -871 0
-70 202 871 0
70 -202 871 0
-70 -202 -871 0
871 334 -466 0
-871 334 466 0
871 -334 466 0
-871 -334 -466 0
334 -872 0
871 -872 0
-334 -871 872 0
202 -873 0
70 -873 0
-202 -70 873 0
-872 599 0
-873 599 0
872 873 -599 0
71 203 -874 0
-71 203 874 0
71 -203 874 0
-71 -203 -874 0
874 335 -467 0
-874 335 467 0
874 -335 467 0
-874 -335 -467 0
335 -875 0
874 -875 0
-335 -874 875 0
203 -876 0
71 -876 0
-203 -71 876 0
-875 600 0
-876 600 0
875 876 -600 0
72 204 -877 0
-72 204 877 0
72 -204 877 0
-72 -204 -877 0
877 336 -468 0
-877 336 468 0
877 -336 468 0
-877 -336 -468 0
336 -878 0
877 -878 0
-336 -877 878 0
204 -879 0
72 -879 0
-204 -72 879 0
-878 601 0
-879 601 0
878 879 -601 0
73 205 -880 0
-73 205 880 0
73 -205 880 0
-73 -205 -880 0
880 337 -469 0
-880 337 469 0
880 -337 469 0
-880 -337 -469 0
337 -881 0
880 -881 0
-337 -880 881 0
205 -882 0
73 -882 0
-205 -73 882 0
-881 602 0
-882 602 0
881 882 -602 0
74 206 -883 0
-74 206 883 0
74 -206 883 0
-74 -206 -883 0
883 338 -470 0
-883 338 470 0
883 -338 470 0
-883 -338 -470 0
338 -884 0
883 -884 0
-338 -883 884 0
206 -885 0
74 -885 0
-206 -74 885 0
-884 603 0
-885 603 0
884 885 -603 0
75 207 -886 0
-75 207 886 0
75 -207 886 0
-75 -207 -886 0
886 339 -471 0
-886 339 471 0
886 -339 471 0
-886 -339 -471 0
339 -887 0
886 -887 0
-339 -886 887 0
207 -888 0
75 -888 0
-207 -75 888 0
-887 604 0
-888 604 0
887 888 -604 0
76 208 -889 0
-76 208 889 0
76 -208 889 0
-76 -208 -889 0
889 340 -472 0
-889 340 472 0
889 -340 472 0
-889 -340 -472 0
340 -890 0
889 -890 0
-340 -889 890 0
208 -891 0
76 -891 0
-208 -76 891 0
-890 605 0
-891 605 0
890 891 -605 0
77 209 -892 0
-77 209 892 0
77 -209 892 0
-77 -209 -892 0
892 341 -473 0
-892 341 473 0
892 -341 473 0
-892 -341 -473 0
341 -893 0
892 -893 0
-341 -892 893 0
209 -894 0
77 -894 0
-209 -77 894 0
-893 606 0
-894 606 0
893 894 -606 0
78 210 -895 0
-78 210 895 0
78 -210 895 0
-78 -210 -895 0
895 342 -474 0
-895 342 474 0
895 -342 474 0
-895 -342 -474 0
342 -896 0
895 -896 0
-342 -895 896 0
210 -897 0
78 -897 0
-210 -78 897 0
-896 607 0
-897 607 0
896 897 -607 0
79 211 -898 0
-79 211 898 0
79 -211 898 0
-79 -211 -898 0
898 343 -475 0
-898 343 475 0
898 -343 475 0
-898 -343 -475 0
343 -899 0
898 -899 0
-343 -898 899 0
211 -900 0
79 -900 0
-211 -79 900 0
-899 608 0
-900 608 0
899 900 -608 0
80 212 -901 0
-80 212 901 0
80 -212 901 0
-80 -212 -901 0
901 344 -476 0
-901 344 476 0
901 -344 476 0
-901 -344 -476 0
344 -902 0
901 -902 0
-344 -901 902 0
212 -903 0
80 -903 0
-212 -80 903 0
-902 609 0
-903 609 0
902 903 -609 0
81 213 -904 0
-81 213 904 0
81 -213 904 0
-81 -213 -904 0
904 345 -477 0
-904 345 477 0
904 -345 477 0
-904 -345 -477 0
345 -905 0
904 -905 0
-345 -904 905 0
213 -906 0
81 -906 0
-213 -81 906 0
-905 610 0
-906 610 0
905 906 -610 0
82 214 -907 0
-82 214 907 0
82 -214 907 0
-82 -214 -907 0
907 346 -478 0
-907 346 478 0
907 -346 478 0
-907 -346 -478 0
346 -908 0
907 -908 0
-346 -907 908 0
214 -909 0
82 -909 0
-214 -82 909 0
-908 611 0
-909 611 0
908 909 -611 0
83 215 -910 0
-83 215 910 0
83 -215 910 0
-83 -215 -910 0
910 347 -479 0
-910 347 479 0
910 -347 479 0
-910 -347 -479 0
347 -911 0
910 -911 0
-347 -910 911 0
215 -912 0
83 -912 0
-215 -83 912 0
-911 612 0
-912 612 0
911 912 -612 0
84 216 -913 0
-84 216 913 0
84 -216 913 0
-84 -216 -913 0
913 348 -480 0
-913 348 480 0
913 -348 480 0
-913 -348 -480 0
348 -914 0
913 -914 0
-348 -913 914 0
216 -915 0
84 -915 0
-216 -84 915 0
-914 613 0
-915 613 0
914 915 -613 0
85 217 -916 0
-85 217 916 0
85 -217 916 0
-85 -217 -916 0
916 349 -481 0
-916 349 481 0
916 -349 481 0
-916 -349 -481 0
349 -917 0
916 -917 0
-349 -916 917 0
217 -918 0
85 -918 0
-217 -85 918 0
-917 614 0
-918 614 0
917 918 -614 0
86 218 -919 0
-86 218 919 0
86 -218 919 0
-86 -218 -919 0
919 350 -482 0
-919 350 482 0
919 -350 482 0
-919 -350 -482 0
350 -920 0
919 -920 0
-350 -919 920 0
218 -921 0
86 -921 0
-218 -86 921 0
-920 615 0
-921 615 0
920 921 -615 0
87 219 -922 0
-87 219 922 0
87 -219 922 0
-87 -219 -922 0
922 351 -483 0
-922 351 483 0
922 -351 483 0
-922 -351 -483 0
351 -923 0
922 -923 0
-351 -922 923 0
219 -924 0
87 -924 0
-219 -87 924 0
-923 616 0
-924 616 0
923 924 -616 0
88 220 -925 0
-88 220 925 0
88 -220 925 0
-88 -220 -925 0
925 352 -484 0
-925 352 484 0
925 -352 484 0
-925 -352 -484 0
352 -926 0
925 -926 0
-352 -925 926 0
220 -927 0
88 -927 0
-220 -88 927 0
-926 617 0
-927 617 0
926 927 -617 0
89 221 -928 0
-89 221 928 0
89 -221 928 0
-89 -221 -928 0
928 353 -485 0
-928 353 485 0
928 -353 485 0
-928 -353 -485 0
353 -929 0
928 -929 0
-353 -928 929 0
221 -930 0
89 -930 0
-221 -89 930 0
-929 618 0
-930 618 0
929 930 -618 0
90 222 -931 0
-90 222 931 0
90 -222 931 0
-90 -222 -931 0
931 354 -486 0
-931 354 486 0
931 -354 486 0
-931 -354 -486 0
354 -932 0
931 -932 0
-354 -931 932 0
222 -933 0
90 -933 0
-222 -90 933 0
-932 619 0
-933 619 0
932 933 -619 0
91 223 -934 0
-91 223 934 0
91 -223 934 0
-91 -223 -934 0
934 355 -487 0
-934 355 487 0
934 -355 487 0
-934 -355 -487 0
355 -935 0
934 -935 0
-355 -934 935 0
223 -936 0
91 -936 0
-223 -91 936 0
-935 620 0
-936 620 0
935 936 -620 0
92 224 -937 0
-92 224 937 0
92 -224 937 0
-92 -224 -937 0
937 356 -488 0
-937 356 488 0
937 -356 488 0
-937 -356 -488 0
356 -938 0
937 -938 0
-356 -937 938 0
224 -939 0
92 -939 0
-224 -92 939 0
-938 621 0
-939 621 0
938 939 -621 0
93 225 -940 0
-93 225 940 0
93 -225 940 0
-93 -225 -940 0
940 357 -489 0
-940 357 489 0
940 -357 489 0
-940 -357 -489 0
357 -941 0
940 -941 0
-357 -940 941 0
225 -942 0
93 -942 0
-225 -93 942 0
-941 622 0
-942 622 0
941 942 -622 0
94 226 -943 0
-94 226 943 0
94 -226 943 0
-94 -226 -943 0
943 358 -490 0
-943 358 490 0
943 -358 490 0
-943 -358 -490 0
358 -944 0
943 -944 0
-358 -943 944 0
226 -945 0
94 -945 0
-226 -94 945 0
-944 623 0
-945 623 0
944 945 -623 0
95 227 -946 0
-95 227 946 0
95 -227 946 0
-95 -227 -946 0
946 359 -491 0
-946 359 491 0
946 -359 491 0
-946 -359 -491 0
359 -947 0
946 -947 0
-359 -946 947 0
227 -948 0
95 -948 0
-227 -95 948 0
-947 624 0
-948 624 0
947 948 -624 0
96 228 -949 0
-96 228 949 0
96 -228 949 0
-96 -228 -949 0
949 360 -492 0
-949 360 492 0
949 -360 492 0
-949 -360 -492 0
360 -950 0
949 -950 0
-360 -949 950 0
228 -951 0
96 -951 0
-228 -96 951 0
-950 625 0
-951 625 0
950 951 -625 0
97 229 -952 0
-97 229 952 0
97 -229 952 0
-97 -229 -952 0
952 361 -493 0
-952 361 493 0
952 -361 493 0
-952 -361 -493 0
361 -953 0
952 -953 0
-361 -952 953 0
229 -954 0
97 -954 0
-229 -97 954 0
-953 626 0
-954 626 0
953 954 -626 0
98 230 -955 0
-98 230 955 0
98 -230 955 0
-98 -230 -955 0
955 362 -494 0
-955 362 494 0
955 -362 494 0
-955 -362 -494 0
362 -956 0
955 -956 0
-362 -955 956 0
230 -957 0
98 -957 0
-230 -98 957 0
-956 627 0
-957 627 0
956 957 -627 0
99 231 -958 0
-99 231 958 0
99 -231 958 0
-99 -231 -958 0
958 363 -495 0
-958 363 495 0
958 -363 495 0
-958 -363 -495 0
363 -959 0
958 -959 0
-363 -958 959 0
231 -960 0
99 -960 0
-231 -99 960 0
-959 628 0
-960 628 0
959 960 -628 0
100 232 -961 0
-100 232 961 0
100 -232 961 0
-100 -232 -961 0
961 364 -496 0
-961 364 496 0
961 -364 496 0
-961 -364 -496 0
364 -962 0
961 -962 0
-364 -961 962 0
232 -963 0
100 -963 0
-232 -100 963 0
-962 629 0
-963 629 0
962 963 -629 0
101 233 -964 0
-101 233 964 0
101 -233 964 0
-101 -233 -964 0
964 365 -497 0
-964 365 497 0
964 -365 497 0
-964 -365 -497 0
365 -965 0
964 -965 0
-365 -964 965 0
233 -966 0
101 -966 0
-233 -101 966 0
-965 630 0
-966 630 0
965 966 -630 0
102 234 -967 0
-102 234 967 0
102 -234 967 0
-102 -234 -967 0
967 366 -498 0
-967 366 498 0
967 -366 498 0
-967 -366 -498 0
366 -968 0
967 -968 0
-366 -967 968 0
234 -969 0
102 -969 0
-234 -102 969 0
-968 631 0
-969 631 0
968 969 -631 0
103 235 -970 0
-103 235 970 0
103 -235 970 0
-103 -235 -970 0
970 367 -499 0
-970 367 499 0
970 -367 499 0
-970 -367 -499 0
367 -971 0
970 -971 0
-367 -970 971 0
235 -972 0
103 -972 0
-235 -103 972 0
-971 632 0
-972 632 0
971 972 -632 0
104 236 -973 0
-104 236 973 0
104 -236 973 0
-104 -236 -973 0
973 368 -500 0
-973 368 500 0
973 -368 500 0
-973 -368 -500 0
368 -974 0
973 -974 0
-368 -973 974 0
236 -975 0
104 -975 0
-236 -104 975 0
-974 633 0
-975 633 0
974 975 -633 0
105 237 -976 0
-105 237 976 0
105 -237 976 0
-105 -237 -976 0
976 369 -501 0
-976 369 501 0
976 -369 501 0
-976 -369 -501 0
369 -977 0
976 -977 0
-369 -976 977 0
237 -978 0
105 -978 0
-237 -105 978 0
-977 634 0
-978 634 0
977 978 -634 0
106 238 -979 0
-106 238 979 0
106 -238 979 0
-106 -238 -979 0
979 370 -502 0
-979 370 502 0
979 -370 502 0
-979 -370 -502 0
370 -980 0
979 -980 0
-370 -979 980 0
238 -981 0
106 -981 0
-238 -106 981 0
-980 635 0
-981 635 0
980 981 -635 0
107 239 -982 0
-107 239 982 0
107 -239 982 0
-107 -239 -982 0
982 371 -503 0
-982 371 503 0
982 -371 503 0
-982 -371 -503 0
371 -983 0
982 -983 0
-371 -982 983 0
239 -984 0
107 -984 0
-239 -107 984 0
-983 636 0
-984 636 0
983 984 -636 0
108 240 -985 0
-108 240 985 0
108 -240 985 0
-108 -240 -985 0
985 372 -504 0
-985 372 504 0
985 -372 504 0
-985 -372 -504 0
372 -986 0
985 -986 0
-372 -985 986 0
240 -987 0
108 -987 0
-240 -108 987 0
-986 637 0
-987 637 0
986 987 -637 0
109 241 -988 0
-109 241 988 0
109 -241 988 0
-109 -241 -988 0
988 373 -505 0
-988 373 505 0
988 -373 505 0
-988 -373 -505 0
373 -989 0
988 -989 0
-373 -988 989 0
241 -990 0
109 -990 0
-241 -109 990 0
-989 638 0
-990 638 0
989 990 -638 0
110 242 -991 0
-110 242 991 0
110 -242 991 0
-110 -242 -991 0
991 374 -506 0
-991 374 506 0
991 -374 506 0
-991 -374 -506 0
374 -992 0
991 -992 0
-374 -991 992 0
242 -993 0
110 -993 0
-242 -110 993 0
-992 639 0
-993 639 0
992 993 -639 0
111 243 -994 0
-111 243 994 0
111 -243 994 0
-111 -243 -994 0
994 375 -507 0
-994 375 507 0
994 -375 507 0
-994 -375 -507 0
375 -995 0
994 -995 0
-375 -994 995 0
243 -996 0
111 -996 0
-243 -111 996 0
-995 640 0
-996 640 0
995 996 -640 0
112 244 -997 0
-112 244 997 0
112 -244 997 0
-112 -244 -997 0
997 376 -508 0
-997 376 508 0
997 -376 508 0
-997 -376 -508 0
376 -998 0
997 -998 0
-376 -997 998 0
244 -999 0
112 -999 0
-244 -112 999 0
-998 641 0
-999 641 0
998 999 -641 0
113 245 -1000 0
-113 245 1000 0
113 -245 1000 0
-113 -245 -1000 0
1000 377 -509 0
-1000 377 509 0
1000 -377 509 0
-1000 -377 -509 0
377 -1001 0
1000 -1001 0
-377 -1000 1001 0
245 -1002 0
113 -1002 0
-245 -113 1002 0
-1001 642 0
-1002 642 0
1001 1002 -642 0
114 246 -1003 0
-114 246 1003 0
114 -246 1003 0
-114 -246 -1003 0
1003 378 -510 0
-1003 378 510 0
1003 -378 510 0
-1003 -378 -510 0
378 -1004 0
1003 -1004 0
-378 -1003 1004 0
246 -1005 0
114 -1005 0
-246 -114 1005 0
-1004 643 0
-1005 643 0
1004 1005 -643 0
115 247 -1006 0
-115 247 1006 0
115 -247 1006 0
-115 -247 -1006 0
1006 379 -511 0
-1006 379 511 0
1006 -379 511 0
-1006 -379 -511 0
379 -1007 0
1006 -1007 0
-379 -1006 1007 0
247 -1008 0
115 -1008 0
-247 -115 1008 0
-1007 644 0
-1008 644 0
1007 1008 -644 0
116 248 -1009 0
-116 248 1009 0
116 -248 1009 0
-116 -248 -1009 0
1009 380 -512 0
-1009 380 512 0
1009 -380 512 0
-1009 -380 -512 0
380 -1010 0
1009 -1010 0
-380 -1009 1010 0
248 -1011 0
116 -1011 0
-248 -116 1011 0
-1010 645 0
-1011 645 0
1010 1011 -645 0
117 249 -1012 0
-117 249 1012 0
117 -249 1012 0
-117 -249 -1012 0
1012 381 -513 0
-1012 381 513 0
1012 -381 513 0
-1012 -381 -513 0
381 -1013 0
1012 -1013 0
-381 -1012 1013 0
249 -1014 0
117 -1014 0
-249 -117 1014 0
-1013 646 0
-1014 646 0
1013 1014 -646 0
118 250 -1015 0
-118 250 1015 0
118 -250 1015 0
-118 -250 -1015 0
1015 382 -514 0
-1015 382 514 0
1015 -382 514 0
-1015 -382 -514 0
382 -1016 0
1015 -1016 0
-382 -1015 1016 0
250 -1017 0
118 -1017 0
-250 -118 1017 0
-1016 647 0
-1017 647 0
1016 1017 -647 0
119 251 -1018 0
-119 251 1018 0
119 -251 1018 0
-119 -251 -1018 0
1018 383 -515 0
-1018 383 515 0
1018 -383 515 0
-1018 -383 -515 0
383 -1019 0
1018 -1019 0
-383 -1018 1019 0
251 -1020 0
119 -1020 0
-251 -119 1020 0
-1019 648 0
-1020 648 0
1019 1020 -648 0
120 252 -1021 0
-120 252 1021 0
120 -252 1021 0
-120 -252 -1021 0
1021 384 -516 0
-1021 384 516 0
1021 -384 516 0
-1021 -384 -516 0
384 -1022 0
1021 -1022 0
-384 -1021 1022 0
252 -1023 0
120 -1023 0
-252 -120 1023 0
-1022 649 0
-1023 649 0
1022 1023 -649 0
121 253 -1024 0
-121 253 1024 0
121 -253 1024 0
-121 -253 -1024 0
1024 385 -517 0
-1024 385 517 0
1024 -385 517 0
-1024 -385 -517 0
385 -1025 0
1024 -1025 0
-385 -1024 1025 0
253 -1026 0
121 -1026 0
-253 -121 1026 0
-1025 650 0
-1026 650 0
1025 1026 -650 0
122 254 -1027 0
-122 254 1027 0
122 -254 1027 0
-122 -254 -1027 0
1027 386 -518 0
-1027 386 518 0
1027 -386 518 0
-1027 -386 -518 0
386 -1028 0
1027 -1028 0
-386 -1027 1028 0
254 -1029 0
122 -1029 0
-254 -122 1029 0
-1028 651 0
-1029 651 0
1028 1029 -651 0
123 255 -1030 0
-123 255 1030 0
123 -255 1030 0
-123 -255 -1030 0
1030 387 -519 0
-1030 387 519 0
1030 -387 519 0
-1030 -387 -519 0
387 -1031 0
1030 -1031 0
-387 -1030 1031 0
255 -1032 0
123 -1032 0
-255 -123 1032 0
-1031 652 0
-1032 652 0
1031 1032 -652 0
124 256 -1033 0
-124 256 1033 0
124 -256 1033 0
-124 -256 -1033 0
1033 388 -520 0
-1033 388 520 0
1033 -388 520 0
-1033 -388 -520 0
388 -1034 0
1033 -1034 0
-388 -1033 1034 0
256 -1035 0
124 -1035 0
-256 -124 1035 0
-1034 653 0
-1035 653 0
1034 1035 -653 0
125 257 -1036 0
-125 257 1036 0
125 -257 1036 0
-125 -257 -1036 0
1036 389 -521 0
-1036 389 521 0
1036 -389 521 0
-1036 -389 -521 0
389 -1037 0
1036 -1037 0
-389 -1036 1037 0
257 -1038 0
125 -1038 0
-257 -125 1038 0
-1037 654 0
-1038 654 0
1037 1038 -654 0
126 258 -1039 0
-126 258 1039 0
126 -258 1039 0
-126 -258 -1039 0
1039 390 -522 0
-1039 390 522 0
1039 -390 522 0
-1039 -390 -522 0
390 -1040 0
1039 -1040 0
-390 -1039 1040 0
258 -1041 0
126 -1041 0
-258 -126 1041 0
-1040 655 0
-1041 655 0
1040 1041 -655 0
127 259 -1042 0
-127 259 1042 0
127 -259 1042 0
-127 -259 -1042 0
1042 391 -523 0
-1042 391 523 0
1042 -391 523 0
-1042 -391 -523 0
391 -1043 0
1042 -1043 0
-391 -1042 1043 0
259 -1044 0
127 -1044 0
-259 -127 1044 0
-1043 656 0
-1044 656 0
1043 1044 -656 0
128 260 -1045 0
-128 260 1045 0
128 -260 1045 0
-128 -260 -1045 0
1045 392 -524 0
-1045 392 524 0
1045 -392 524 0
-1045 -392 -524 0
392 -1046 0
1045 -1046 0
-392 -1045 1046 0
260 -1047 0
128 -1047 0
-260 -128 1047 0
-1046 657 0
-1047 657 0
1046 1047 -657 0
129 261 -1048 0
-129 261 1048 0
129 -261 1048 0
-129 -261 -1048 0
1048 393 -525 0
-1048 393 525 0
1048 -393 525 0
-1048 -393 -525 0
393 -1049 0
1048 -1049 0
-393 -1048 1049 0
261 -1050 0
129 -1050 0
-261 -129 1050 0
-1049 658 0
-1050 658 0
1049 1050 -658 0
130 262 -1051 0
-130 262 1051 0
130 -262 1051 0
-130 -262 -1051 0
1051 394 -526 0
-1051 394 526 0
1051 -394 526 0
-1051 -394 -526 0
394 -1052 0
1051 -1052 0
-394 -1051 1052 0
262 -1053 0
130 -1053 0
-262 -130 1053 0
-1052 659 0
-1053 659 0
1052 1053 -659 0
131 263 -1054 0
-131 263 1054 0
131 -263 1054 0
-131 -263 -1054 0
1054 395 -527 0
-1054 395 527 0
1054 -395 527 0
-1054 -395 -527 0
395 -1055 0
1054 -1055 0
-395 -1054 1055 0
263 -1056 0
131 -1056 0
-263 -131 1056 0
-1055 660 0
-1056 660 0
1055 1056 -660 0
132 264 -1057 0
-132 264 1057 0
132 -264 1057 0
-132 -264 -1057 0
1057 396 -528 0
-1057 396 528 0
1057 -396 528 0
-1057 -396 -528 0
396 -1058 0
1057 -1058 0
-396 -1057 1058 0
264 -1059 0
132 -1059 0
-264 -132 1059 0
-1058 661 0
-1059 661 0
1058 1059 -661 0
